Hotels = { Radisson, Westin, Le_Meridien, The_Regency, The_Grand_Oriental, Hotel_Shuktara, Hotel_Purbani, Hotel_Amari };
Ratings = [6,5,4,4,3,3,2,5]; 

Limitations = {Budget};
capacity = [100];

consumption = [| 50 
              | 72
              | 32
              | 10
              | 56
              | 66
              | 79
              | 5 |];
